p tw 656 3424
1 33
2 34
3 35
4 36
5 37
6 38
7 39
8 40
9 41
10 42
11 43
12 44
13 45
14 46
15 47
16 48
17 49
18 50
19 51
20 52
21 53
22 54
23 55
24 56
25 57
26 58
27 59
28 60
29 61
30 62
31 63
32 64
33 71
33 72
33 73
33 74
33 75
33 76
34 108
34 109
34 110
34 111
34 112
34 113
35 82
35 83
35 84
35 85
35 86
35 87
36 71
36 82
36 93
36 94
36 95
36 96
37 65
37 66
37 67
37 68
37 69
37 70
38 103
38 125
38 155
38 157
38 158
38 159
39 74
39 85
39 138
39 141
39 142
39 143
40 69
40 80
40 106
40 158
40 171
40 173
41 65
41 77
41 78
41 79
41 80
41 81
42 97
42 119
42 124
42 125
42 126
42 127
43 88
43 120
43 139
43 141
43 144
43 146
44 110
44 116
44 160
44 161
44 162
44 163
45 93
45 109
45 132
45 135
45 136
45 137
46 77
46 133
46 147
46 152
46 153
46 154
47 79
47 121
47 148
47 160
47 164
47 166
48 91
48 126
48 136
48 150
48 174
48 176
49 108
49 114
49 115
49 116
49 117
49 118
50 102
50 147
50 148
50 149
50 150
50 151
51 73
51 83
51 114
51 132
51 133
51 134
52 72
52 119
52 120
52 121
52 122
52 123
53 84
53 99
53 128
53 138
53 139
53 140
54 67
54 97
54 98
54 99
54 100
54 101
55 86
55 104
55 129
55 152
55 164
55 165
56 90
56 105
56 122
56 161
56 167
56 170
57 66
57 88
57 89
57 90
57 91
57 92
58 89
58 111
58 157
58 167
58 168
58 169
59 112
59 142
59 149
59 153
59 171
59 172
60 94
60 100
60 115
60 135
60 144
60 145
61 68
61 75
61 78
61 95
61 155
61 156
62 102
62 103
62 104
62 105
62 106
62 107
63 117
63 130
63 162
63 168
63 174
63 175
64 98
64 124
64 128
64 129
64 130
64 131
65 66
65 67
65 68
65 69
65 70
65 77
65 78
65 79
65 80
65 81
66 67
66 68
66 69
66 70
66 88
66 89
66 90
66 91
66 92
67 68
67 69
67 70
67 97
67 98
67 99
67 100
67 101
68 69
68 70
68 75
68 78
68 95
68 155
68 156
69 70
69 80
69 106
69 158
69 171
69 173
70 177
70 178
70 179
70 180
70 181
70 182
71 72
71 73
71 74
71 75
71 76
71 82
71 93
71 94
71 95
71 96
72 73
72 74
72 75
72 76
72 119
72 120
72 121
72 122
72 123
73 74
73 75
73 76
73 83
73 114
73 132
73 133
73 134
74 75
74 76
74 85
74 138
74 141
74 142
74 143
75 76
75 78
75 95
75 155
75 156
76 183
76 184
76 185
76 186
76 187
76 188
77 78
77 79
77 80
77 81
77 133
77 147
77 152
77 153
77 154
78 79
78 80
78 81
78 95
78 155
78 156
79 80
79 81
79 121
79 148
79 160
79 164
79 166
80 81
80 106
80 158
80 171
80 173
81 177
81 189
81 190
81 191
81 192
81 193
82 83
82 84
82 85
82 86
82 87
82 93
82 94
82 95
82 96
83 84
83 85
83 86
83 87
83 114
83 132
83 133
83 134
84 85
84 86
84 87
84 99
84 128
84 138
84 139
84 140
85 86
85 87
85 138
85 141
85 142
85 143
86 87
86 104
86 129
86 152
86 164
86 165
87 194
87 195
87 196
87 197
87 198
87 199
88 89
88 90
88 91
88 92
88 120
88 139
88 141
88 144
88 146
89 90
89 91
89 92
89 111
89 157
89 167
89 168
89 169
90 91
90 92
90 105
90 122
90 161
90 167
90 170
91 92
91 126
91 136
91 150
91 174
91 176
92 178
92 200
92 201
92 202
92 203
92 204
93 94
93 95
93 96
93 109
93 132
93 135
93 136
93 137
94 95
94 96
94 100
94 115
94 135
94 144
94 145
95 96
95 155
95 156
96 183
96 194
96 205
96 206
96 207
96 208
97 98
97 99
97 100
97 101
97 119
97 124
97 125
97 126
97 127
98 99
98 100
98 101
98 124
98 128
98 129
98 130
98 131
99 100
99 101
99 128
99 138
99 139
99 140
100 101
100 115
100 135
100 144
100 145
101 179
101 209
101 210
101 211
101 212
101 213
102 103
102 104
102 105
102 106
102 107
102 147
102 148
102 149
102 150
102 151
103 104
103 105
103 106
103 107
103 125
103 155
103 157
103 158
103 159
104 105
104 106
104 107
104 129
104 152
104 164
104 165
105 106
105 107
105 122
105 161
105 167
105 170
106 107
106 158
106 171
106 173
107 214
107 215
107 216
107 217
107 218
107 219
108 109
108 110
108 111
108 112
108 113
108 114
108 115
108 116
108 117
108 118
109 110
109 111
109 112
109 113
109 132
109 135
109 136
109 137
110 111
110 112
110 113
110 116
110 160
110 161
110 162
110 163
111 112
111 113
111 157
111 167
111 168
111 169
112 113
112 142
112 149
112 153
112 171
112 172
113 220
113 221
113 222
113 223
113 224
113 225
114 115
114 116
114 117
114 118
114 132
114 133
114 134
115 116
115 117
115 118
115 135
115 144
115 145
116 117
116 118
116 160
116 161
116 162
116 163
117 118
117 130
117 162
117 168
117 174
117 175
118 220
118 226
118 227
118 228
118 229
118 230
119 120
119 121
119 122
119 123
119 124
119 125
119 126
119 127
120 121
120 122
120 123
120 139
120 141
120 144
120 146
121 122
121 123
121 148
121 160
121 164
121 166
122 123
122 161
122 167
122 170
123 184
123 231
123 232
123 233
123 234
123 235
124 125
124 126
124 127
124 128
124 129
124 130
124 131
125 126
125 127
125 155
125 157
125 158
125 159
126 127
126 136
126 150
126 174
126 176
127 209
127 231
127 236
127 237
127 238
127 239
128 129
128 130
128 131
128 138
128 139
128 140
129 130
129 131
129 152
129 164
129 165
130 131
130 162
130 168
130 174
130 175
131 210
131 236
131 240
131 241
131 242
131 243
132 133
132 134
132 135
132 136
132 137
133 134
133 147
133 152
133 153
133 154
134 185
134 195
134 226
134 244
134 245
134 246
135 136
135 137
135 144
135 145
136 137
136 150
136 174
136 176
137 205
137 221
137 244
137 247
137 248
137 249
138 139
138 140
138 141
138 142
138 143
139 140
139 141
139 144
139 146
140 196
140 211
140 240
140 250
140 251
140 252
141 142
141 143
141 144
141 146
142 143
142 149
142 153
142 171
142 172
143 186
143 197
143 250
143 253
143 254
143 255
144 145
144 146
145 206
145 212
145 227
145 247
145 256
145 257
146 200
146 232
146 251
146 253
146 256
146 258
147 148
147 149
147 150
147 151
147 152
147 153
147 154
148 149
148 150
148 151
148 160
148 164
148 166
149 150
149 151
149 153
149 171
149 172
150 151
150 174
150 176
151 214
151 259
151 260
151 261
151 262
151 263
152 153
152 154
152 164
152 165
153 154
153 171
153 172
154 189
154 245
154 259
154 264
154 265
154 266
155 156
155 157
155 158
155 159
156 180
156 187
156 190
156 207
156 267
156 268
157 158
157 159
157 167
157 168
157 169
158 159
158 171
158 173
159 215
159 237
159 267
159 269
159 270
159 271
160 161
160 162
160 163
160 164
160 166
161 162
161 163
161 167
161 170
162 163
162 168
162 174
162 175
163 222
163 228
163 272
163 273
163 274
163 275
164 165
164 166
165 198
165 216
165 241
165 264
165 276
165 277
166 191
166 233
166 260
166 272
166 276
166 278
167 168
167 169
167 170
168 169
168 174
168 175
169 201
169 223
169 269
169 279
169 280
169 281
170 202
170 217
170 234
170 273
170 279
170 282
171 172
171 173
172 224
172 254
172 261
172 265
172 283
172 284
173 181
173 192
173 218
173 270
173 283
173 285
174 175
174 176
175 229
175 242
175 274
175 280
175 286
175 287
176 203
176 238
176 248
176 262
176 286
176 288
177 178
177 179
177 180
177 181
177 182
177 189
177 190
177 191
177 192
177 193
178 179
178 180
178 181
178 182
178 200
178 201
178 202
178 203
178 204
179 180
179 181
179 182
179 209
179 210
179 211
179 212
179 213
180 181
180 182
180 187
180 190
180 207
180 267
180 268
181 182
181 192
181 218
181 270
181 283
181 285
182 289
182 290
182 291
182 292
182 293
182 294
183 184
183 185
183 186
183 187
183 188
183 194
183 205
183 206
183 207
183 208
184 185
184 186
184 187
184 188
184 231
184 232
184 233
184 234
184 235
185 186
185 187
185 188
185 195
185 226
185 244
185 245
185 246
186 187
186 188
186 197
186 250
186 253
186 254
186 255
187 188
187 190
187 207
187 267
187 268
188 295
188 296
188 297
188 298
188 299
188 300
189 190
189 191
189 192
189 193
189 245
189 259
189 264
189 265
189 266
190 191
190 192
190 193
190 207
190 267
190 268
191 192
191 193
191 233
191 260
191 272
191 276
191 278
192 193
192 218
192 270
192 283
192 285
193 289
193 301
193 302
193 303
193 304
193 305
194 195
194 196
194 197
194 198
194 199
194 205
194 206
194 207
194 208
195 196
195 197
195 198
195 199
195 226
195 244
195 245
195 246
196 197
196 198
196 199
196 211
196 240
196 250
196 251
196 252
197 198
197 199
197 250
197 253
197 254
197 255
198 199
198 216
198 241
198 264
198 276
198 277
199 306
199 307
199 308
199 309
199 310
199 311
200 201
200 202
200 203
200 204
200 232
200 251
200 253
200 256
200 258
201 202
201 203
201 204
201 223
201 269
201 279
201 280
201 281
202 203
202 204
202 217
202 234
202 273
202 279
202 282
203 204
203 238
203 248
203 262
203 286
203 288
204 290
204 312
204 313
204 314
204 315
204 316
205 206
205 207
205 208
205 221
205 244
205 247
205 248
205 249
206 207
206 208
206 212
206 227
206 247
206 256
206 257
207 208
207 267
207 268
208 295
208 306
208 317
208 318
208 319
208 320
209 210
209 211
209 212
209 213
209 231
209 236
209 237
209 238
209 239
210 211
210 212
210 213
210 236
210 240
210 241
210 242
210 243
211 212
211 213
211 240
211 250
211 251
211 252
212 213
212 227
212 247
212 256
212 257
213 291
213 321
213 322
213 323
213 324
213 325
214 215
214 216
214 217
214 218
214 219
214 259
214 260
214 261
214 262
214 263
215 216
215 217
215 218
215 219
215 237
215 267
215 269
215 270
215 271
216 217
216 218
216 219
216 241
216 264
216 276
216 277
217 218
217 219
217 234
217 273
217 279
217 282
218 219
218 270
218 283
218 285
219 326
219 327
219 328
219 329
219 330
219 331
220 221
220 222
220 223
220 224
220 225
220 226
220 227
220 228
220 229
220 230
221 222
221 223
221 224
221 225
221 244
221 247
221 248
221 249
222 223
222 224
222 225
222 228
222 272
222 273
222 274
222 275
223 224
223 225
223 269
223 279
223 280
223 281
224 225
224 254
224 261
224 265
224 283
224 284
225 332
225 333
225 334
225 335
225 336
225 337
226 227
226 228
226 229
226 230
226 244
226 245
226 246
227 228
227 229
227 230
227 247
227 256
227 257
228 229
228 230
228 272
228 273
228 274
228 275
229 230
229 242
229 274
229 280
229 286
229 287
230 332
230 338
230 339
230 340
230 341
230 342
231 232
231 233
231 234
231 235
231 236
231 237
231 238
231 239
232 233
232 234
232 235
232 251
232 253
232 256
232 258
233 234
233 235
233 260
233 272
233 276
233 278
234 235
234 273
234 279
234 282
235 296
235 343
235 344
235 345
235 346
235 347
236 237
236 238
236 239
236 240
236 241
236 242
236 243
237 238
237 239
237 267
237 269
237 270
237 271
238 239
238 248
238 262
238 286
238 288
239 321
239 343
239 348
239 349
239 350
239 351
240 241
240 242
240 243
240 250
240 251
240 252
241 242
241 243
241 264
241 276
241 277
242 243
242 274
242 280
242 286
242 287
243 322
243 348
243 352
243 353
243 354
243 355
244 245
244 246
244 247
244 248
244 249
245 246
245 259
245 264
245 265
245 266
246 297
246 307
246 338
246 356
246 357
246 358
247 248
247 249
247 256
247 257
248 249
248 262
248 286
248 288
249 317
249 333
249 356
249 359
249 360
249 361
250 251
250 252
250 253
250 254
250 255
251 252
251 253
251 256
251 258
252 308
252 323
252 352
252 362
252 363
252 364
253 254
253 255
253 256
253 258
254 255
254 261
254 265
254 283
254 284
255 298
255 309
255 362
255 365
255 366
255 367
256 257
256 258
257 318
257 324
257 339
257 359
257 368
257 369
258 312
258 344
258 363
258 365
258 368
258 370
259 260
259 261
259 262
259 263
259 264
259 265
259 266
260 261
260 262
260 263
260 272
260 276
260 278
261 262
261 263
261 265
261 283
261 284
262 263
262 286
262 288
263 326
263 371
263 372
263 373
263 374
263 375
264 265
264 266
264 276
264 277
265 266
265 283
265 284
266 301
266 357
266 371
266 376
266 377
266 378
267 268
267 269
267 270
267 271
268 292
268 299
268 302
268 319
268 379
268 380
269 270
269 271
269 279
269 280
269 281
270 271
270 283
270 285
271 327
271 349
271 379
271 381
271 382
271 383
272 273
272 274
272 275
272 276
272 278
273 274
273 275
273 279
273 282
274 275
274 280
274 286
274 287
275 334
275 340
275 384
275 385
275 386
275 387
276 277
276 278
277 310
277 328
277 353
277 376
277 388
277 389
278 303
278 345
278 372
278 384
278 388
278 390
279 280
279 281
279 282
280 281
280 286
280 287
281 313
281 335
281 381
281 391
281 392
281 393
282 314
282 329
282 346
282 385
282 391
282 394
283 284
283 285
284 336
284 366
284 373
284 377
284 395
284 396
285 293
285 304
285 330
285 382
285 395
285 397
286 287
286 288
287 341
287 354
287 386
287 392
287 398
287 399
288 315
288 350
288 360
288 374
288 398
288 400
289 290
289 291
289 292
289 293
289 294
289 301
289 302
289 303
289 304
289 305
290 291
290 292
290 293
290 294
290 312
290 313
290 314
290 315
290 316
291 292
291 293
291 294
291 321
291 322
291 323
291 324
291 325
292 293
292 294
292 299
292 302
292 319
292 379
292 380
293 294
293 304
293 330
293 382
293 395
293 397
294 401
294 402
294 403
294 404
294 405
294 406
295 296
295 297
295 298
295 299
295 300
295 306
295 317
295 318
295 319
295 320
296 297
296 298
296 299
296 300
296 343
296 344
296 345
296 346
296 347
297 298
297 299
297 300
297 307
297 338
297 356
297 357
297 358
298 299
298 300
298 309
298 362
298 365
298 366
298 367
299 300
299 302
299 319
299 379
299 380
300 407
300 408
300 409
300 410
300 411
300 412
301 302
301 303
301 304
301 305
301 357
301 371
301 376
301 377
301 378
302 303
302 304
302 305
302 319
302 379
302 380
303 304
303 305
303 345
303 372
303 384
303 388
303 390
304 305
304 330
304 382
304 395
304 397
305 401
305 413
305 414
305 415
305 416
305 417
306 307
306 308
306 309
306 310
306 311
306 317
306 318
306 319
306 320
307 308
307 309
307 310
307 311
307 338
307 356
307 357
307 358
308 309
308 310
308 311
308 323
308 352
308 362
308 363
308 364
309 310
309 311
309 362
309 365
309 366
309 367
310 311
310 328
310 353
310 376
310 388
310 389
311 418
311 419
311 420
311 421
311 422
311 423
312 313
312 314
312 315
312 316
312 344
312 363
312 365
312 368
312 370
313 314
313 315
313 316
313 335
313 381
313 391
313 392
313 393
314 315
314 316
314 329
314 346
314 385
314 391
314 394
315 316
315 350
315 360
315 374
315 398
315 400
316 402
316 424
316 425
316 426
316 427
316 428
317 318
317 319
317 320
317 333
317 356
317 359
317 360
317 361
318 319
318 320
318 324
318 339
318 359
318 368
318 369
319 320
319 379
319 380
320 407
320 418
320 429
320 430
320 431
320 432
321 322
321 323
321 324
321 325
321 343
321 348
321 349
321 350
321 351
322 323
322 324
322 325
322 348
322 352
322 353
322 354
322 355
323 324
323 325
323 352
323 362
323 363
323 364
324 325
324 339
324 359
324 368
324 369
325 403
325 433
325 434
325 435
325 436
325 437
326 327
326 328
326 329
326 330
326 331
326 371
326 372
326 373
326 374
326 375
327 328
327 329
327 330
327 331
327 349
327 379
327 381
327 382
327 383
328 329
328 330
328 331
328 353
328 376
328 388
328 389
329 330
329 331
329 346
329 385
329 391
329 394
330 331
330 382
330 395
330 397
331 438
331 439
331 440
331 441
331 442
331 443
332 333
332 334
332 335
332 336
332 337
332 338
332 339
332 340
332 341
332 342
333 334
333 335
333 336
333 337
333 356
333 359
333 360
333 361
334 335
334 336
334 337
334 340
334 384
334 385
334 386
334 387
335 336
335 337
335 381
335 391
335 392
335 393
336 337
336 366
336 373
336 377
336 395
336 396
337 444
337 445
337 446
337 447
337 448
337 449
338 339
338 340
338 341
338 342
338 356
338 357
338 358
339 340
339 341
339 342
339 359
339 368
339 369
340 341
340 342
340 384
340 385
340 386
340 387
341 342
341 354
341 386
341 392
341 398
341 399
342 444
342 450
342 451
342 452
342 453
342 454
343 344
343 345
343 346
343 347
343 348
343 349
343 350
343 351
344 345
344 346
344 347
344 363
344 365
344 368
344 370
345 346
345 347
345 372
345 384
345 388
345 390
346 347
346 385
346 391
346 394
347 408
347 455
347 456
347 457
347 458
347 459
348 349
348 350
348 351
348 352
348 353
348 354
348 355
349 350
349 351
349 379
349 381
349 382
349 383
350 351
350 360
350 374
350 398
350 400
351 433
351 455
351 460
351 461
351 462
351 463
352 353
352 354
352 355
352 362
352 363
352 364
353 354
353 355
353 376
353 388
353 389
354 355
354 386
354 392
354 398
354 399
355 434
355 460
355 464
355 465
355 466
355 467
356 357
356 358
356 359
356 360
356 361
357 358
357 371
357 376
357 377
357 378
358 409
358 419
358 450
358 468
358 469
358 470
359 360
359 361
359 368
359 369
360 361
360 374
360 398
360 400
361 429
361 445
361 468
361 471
361 472
361 473
362 363
362 364
362 365
362 366
362 367
363 364
363 365
363 368
363 370
364 420
364 435
364 464
364 474
364 475
364 476
365 366
365 367
365 368
365 370
366 367
366 373
366 377
366 395
366 396
367 410
367 421
367 474
367 477
367 478
367 479
368 369
368 370
369 430
369 436
369 451
369 471
369 480
369 481
370 424
370 456
370 475
370 477
370 480
370 482
371 372
371 373
371 374
371 375
371 376
371 377
371 378
372 373
372 374
372 375
372 384
372 388
372 390
373 374
373 375
373 377
373 395
373 396
374 375
374 398
374 400
375 438
375 483
375 484
375 485
375 486
375 487
376 377
376 378
376 388
376 389
377 378
377 395
377 396
378 413
378 469
378 483
378 488
378 489
378 490
379 380
379 381
379 382
379 383
380 404
380 411
380 414
380 431
380 491
380 492
381 382
381 383
381 391
381 392
381 393
382 383
382 395
382 397
383 439
383 461
383 491
383 493
383 494
383 495
384 385
384 386
384 387
384 388
384 390
385 386
385 387
385 391
385 394
386 387
386 392
386 398
386 399
387 446
387 452
387 496
387 497
387 498
387 499
388 389
388 390
389 422
389 440
389 465
389 488
389 500
389 501
390 415
390 457
390 484
390 496
390 500
390 502
391 392
391 393
391 394
392 393
392 398
392 399
393 425
393 447
393 493
393 503
393 504
393 505
394 426
394 441
394 458
394 497
394 503
394 506
395 396
395 397
396 448
396 478
396 485
396 489
396 507
396 508
397 405
397 416
397 442
397 494
397 507
397 509
398 399
398 400
399 453
399 466
399 498
399 504
399 510
399 511
400 427
400 462
400 472
400 486
400 510
400 512
401 402
401 403
401 404
401 405
401 406
401 413
401 414
401 415
401 416
401 417
402 403
402 404
402 405
402 406
402 424
402 425
402 426
402 427
402 428
403 404
403 405
403 406
403 433
403 434
403 435
403 436
403 437
404 405
404 406
404 411
404 414
404 431
404 491
404 492
405 406
405 416
405 442
405 494
405 507
405 509
406 513
406 514
406 515
406 516
406 517
406 518
407 408
407 409
407 410
407 411
407 412
407 418
407 429
407 430
407 431
407 432
408 409
408 410
408 411
408 412
408 455
408 456
408 457
408 458
408 459
409 410
409 411
409 412
409 419
409 450
409 468
409 469
409 470
410 411
410 412
410 421
410 474
410 477
410 478
410 479
411 412
411 414
411 431
411 491
411 492
412 519
412 520
412 521
412 522
412 523
412 524
413 414
413 415
413 416
413 417
413 469
413 483
413 488
413 489
413 490
414 415
414 416
414 417
414 431
414 491
414 492
415 416
415 417
415 457
415 484
415 496
415 500
415 502
416 417
416 442
416 494
416 507
416 509
417 513
417 525
417 526
417 527
417 528
417 529
418 419
418 420
418 421
418 422
418 423
418 429
418 430
418 431
418 432
419 420
419 421
419 422
419 423
419 450
419 468
419 469
419 470
420 421
420 422
420 423
420 435
420 464
420 474
420 475
420 476
421 422
421 423
421 474
421 477
421 478
421 479
422 423
422 440
422 465
422 488
422 500
422 501
423 530
423 531
423 532
423 533
423 534
423 535
424 425
424 426
424 427
424 428
424 456
424 475
424 477
424 480
424 482
425 426
425 427
425 428
425 447
425 493
425 503
425 504
425 505
426 427
426 428
426 441
426 458
426 497
426 503
426 506
427 428
427 462
427 472
427 486
427 510
427 512
428 514
428 536
428 537
428 538
428 539
428 540
429 430
429 431
429 432
429 445
429 468
429 471
429 472
429 473
430 431
430 432
430 436
430 451
430 471
430 480
430 481
431 432
431 491
431 492
432 519
432 530
432 541
432 542
432 543
432 544
433 434
433 435
433 436
433 437
433 455
433 460
433 461
433 462
433 463
434 435
434 436
434 437
434 460
434 464
434 465
434 466
434 467
435 436
435 437
435 464
435 474
435 475
435 476
436 437
436 451
436 471
436 480
436 481
437 515
437 545
437 546
437 547
437 548
437 549
438 439
438 440
438 441
438 442
438 443
438 483
438 484
438 485
438 486
438 487
439 440
439 441
439 442
439 443
439 461
439 491
439 493
439 494
439 495
440 441
440 442
440 443
440 465
440 488
440 500
440 501
441 442
441 443
441 458
441 497
441 503
441 506
442 443
442 494
442 507
442 509
443 550
443 551
443 552
443 553
443 554
443 555
444 445
444 446
444 447
444 448
444 449
444 450
444 451
444 452
444 453
444 454
445 446
445 447
445 448
445 449
445 468
445 471
445 472
445 473
446 447
446 448
446 449
446 452
446 496
446 497
446 498
446 499
447 448
447 449
447 493
447 503
447 504
447 505
448 449
448 478
448 485
448 489
448 507
448 508
449 556
449 557
449 558
449 559
449 560
449 561
450 451
450 452
450 453
450 454
450 468
450 469
450 470
451 452
451 453
451 454
451 471
451 480
451 481
452 453
452 454
452 496
452 497
452 498
452 499
453 454
453 466
453 498
453 504
453 510
453 511
454 556
454 562
454 563
454 564
454 565
454 566
455 456
455 457
455 458
455 459
455 460
455 461
455 462
455 463
456 457
456 458
456 459
456 475
456 477
456 480
456 482
457 458
457 459
457 484
457 496
457 500
457 502
458 459
458 497
458 503
458 506
459 520
459 567
459 568
459 569
459 570
459 571
460 461
460 462
460 463
460 464
460 465
460 466
460 467
461 462
461 463
461 491
461 493
461 494
461 495
462 463
462 472
462 486
462 510
462 512
463 545
463 567
463 572
463 573
463 574
463 575
464 465
464 466
464 467
464 474
464 475
464 476
465 466
465 467
465 488
465 500
465 501
466 467
466 498
466 504
466 510
466 511
467 546
467 572
467 576
467 577
467 578
467 579
468 469
468 470
468 471
468 472
468 473
469 470
469 483
469 488
469 489
469 490
470 521
470 531
470 562
470 580
470 581
470 582
471 472
471 473
471 480
471 481
472 473
472 486
472 510
472 512
473 541
473 557
473 580
473 583
473 584
473 585
474 475
474 476
474 477
474 478
474 479
475 476
475 477
475 480
475 482
476 532
476 547
476 576
476 586
476 587
476 588
477 478
477 479
477 480
477 482
478 479
478 485
478 489
478 507
478 508
479 522
479 533
479 586
479 589
479 590
479 591
480 481
480 482
481 542
481 548
481 563
481 583
481 592
481 593
482 536
482 568
482 587
482 589
482 592
482 594
483 484
483 485
483 486
483 487
483 488
483 489
483 490
484 485
484 486
484 487
484 496
484 500
484 502
485 486
485 487
485 489
485 507
485 508
486 487
486 510
486 512
487 550
487 595
487 596
487 597
487 598
487 599
488 489
488 490
488 500
488 501
489 490
489 507
489 508
490 525
490 581
490 595
490 600
490 601
490 602
491 492
491 493
491 494
491 495
492 516
492 523
492 526
492 543
492 603
492 604
493 494
493 495
493 503
493 504
493 505
494 495
494 507
494 509
495 551
495 573
495 603
495 605
495 606
495 607
496 497
496 498
496 499
496 500
496 502
497 498
497 499
497 503
497 506
498 499
498 504
498 510
498 511
499 558
499 564
499 608
499 609
499 610
499 611
500 501
500 502
501 534
501 552
501 577
501 600
501 612
501 613
502 527
502 569
502 596
502 608
502 612
502 614
503 504
503 505
503 506
504 505
504 510
504 511
505 537
505 559
505 605
505 615
505 616
505 617
506 538
506 553
506 570
506 609
506 615
506 618
507 508
507 509
508 560
508 590
508 597
508 601
508 619
508 620
509 517
509 528
509 554
509 606
509 619
509 621
510 511
510 512
511 565
511 578
511 610
511 616
511 622
511 623
512 539
512 574
512 584
512 598
512 622
512 624
513 514
513 515
513 516
513 517
513 518
513 525
513 526
513 527
513 528
513 529
514 515
514 516
514 517
514 518
514 536
514 537
514 538
514 539
514 540
515 516
515 517
515 518
515 545
515 546
515 547
515 548
515 549
516 517
516 518
516 523
516 526
516 543
516 603
516 604
517 518
517 528
517 554
517 606
517 619
517 621
518 652
519 520
519 521
519 522
519 523
519 524
519 530
519 541
519 542
519 543
519 544
520 521
520 522
520 523
520 524
520 567
520 568
520 569
520 570
520 571
521 522
521 523
521 524
521 531
521 562
521 580
521 581
521 582
522 523
522 524
522 533
522 586
522 589
522 590
522 591
523 524
523 526
523 543
523 603
523 604
524 656
525 526
525 527
525 528
525 529
525 581
525 595
525 600
525 601
525 602
526 527
526 528
526 529
526 543
526 603
526 604
527 528
527 529
527 569
527 596
527 608
527 612
527 614
528 529
528 554
528 606
528 619
528 621
529 648
530 531
530 532
530 533
530 534
530 535
530 541
530 542
530 543
530 544
531 532
531 533
531 534
531 535
531 562
531 580
531 581
531 582
532 533
532 534
532 535
532 547
532 576
532 586
532 587
532 588
533 534
533 535
533 586
533 589
533 590
533 591
534 535
534 552
534 577
534 600
534 612
534 613
535 654
536 537
536 538
536 539
536 540
536 568
536 587
536 589
536 592
536 594
537 538
537 539
537 540
537 559
537 605
537 615
537 616
537 617
538 539
538 540
538 553
538 570
538 609
538 615
538 618
539 540
539 574
539 584
539 598
539 622
539 624
540 632
541 542
541 543
541 544
541 557
541 580
541 583
541 584
541 585
542 543
542 544
542 548
542 563
542 583
542 592
542 593
543 544
543 603
543 604
544 653
545 546
545 547
545 548
545 549
545 567
545 572
545 573
545 574
545 575
546 547
546 548
546 549
546 572
546 576
546 577
546 578
546 579
547 548
547 549
547 576
547 586
547 587
547 588
548 549
548 563
548 583
548 592
548 593
549 635
550 551
550 552
550 553
550 554
550 555
550 595
550 596
550 597
550 598
550 599
551 552
551 553
551 554
551 555
551 573
551 603
551 605
551 606
551 607
552 553
552 554
552 555
552 577
552 600
552 612
552 613
553 554
553 555
553 570
553 609
553 615
553 618
554 555
554 606
554 619
554 621
555 627
556 557
556 558
556 559
556 560
556 561
556 562
556 563
556 564
556 565
556 566
557 558
557 559
557 560
557 561
557 580
557 583
557 584
557 585
558 559
558 560
558 561
558 564
558 608
558 609
558 610
558 611
559 560
559 561
559 605
559 615
559 616
559 617
560 561
560 590
560 597
560 601
560 619
560 620
561 655
562 563
562 564
562 565
562 566
562 580
562 581
562 582
563 564
563 565
563 566
563 583
563 592
563 593
564 565
564 566
564 608
564 609
564 610
564 611
565 566
565 578
565 610
565 616
565 622
565 623
566 640
567 568
567 569
567 570
567 571
567 572
567 573
567 574
567 575
568 569
568 570
568 571
568 587
568 589
568 592
568 594
569 570
569 571
569 596
569 608
569 612
569 614
570 571
570 609
570 615
570 618
571 637
572 573
572 574
572 575
572 576
572 577
572 578
572 579
573 574
573 575
573 603
573 605
573 606
573 607
574 575
574 584
574 598
574 622
574 624
575 647
576 577
576 578
576 579
576 586
576 587
576 588
577 578
577 579
577 600
577 612
577 613
578 579
578 610
578 616
578 622
578 623
579 625
580 581
580 582
580 583
580 584
580 585
581 582
581 595
581 600
581 601
581 602
582 638
583 584
583 585
583 592
583 593
584 585
584 598
584 622
584 624
585 644
586 587
586 588
586 589
586 590
586 591
587 588
587 589
587 592
587 594
588 636
589 590
589 591
589 592
589 594
590 591
590 597
590 601
590 619
590 620
591 650
592 593
592 594
593 629
594 646
595 596
595 597
595 598
595 599
595 600
595 601
595 602
596 597
596 598
596 599
596 608
596 612
596 614
597 598
597 599
597 601
597 619
597 620
598 599
598 622
598 624
599 639
600 601
600 602
600 612
600 613
601 602
601 619
601 620
602 643
603 604
603 605
603 606
603 607
604 628
605 606
605 607
605 615
605 616
605 617
606 607
606 619
606 621
607 651
608 609
608 610
608 611
608 612
608 614
609 610
609 611
609 615
609 618
610 611
610 616
610 622
610 623
611 645
612 613
612 614
613 634
614 642
615 616
615 617
615 618
616 617
616 622
616 623
617 631
618 633
619 620
619 621
620 630
621 649
622 623
622 624
623 626
624 641
